NAME : MM31_depots
COMMENT : Instance 31 in MD algorithm. Coordinates of depots and vhcl speeds given.
TYPE : TSP
DIMENSION : 10
EDGE_WEIGHT_TYPE : ATT
NODE_COORD_SECTION
201 63.1931 99.2175 1
202 98.5237 40.2352 1
203 55.9477 65.8856 1
204 93.3592 90.1348 1
205 72.0343 99.5382 1
206 48.4039 65.3163 1
207 63.9031 10.8436 1
208 88.7637 3.6114 1
209 19.8737 61.8091 1
210 39.5366 56.7144 1
EOF
